; SPDX-License-Identifier: MPL-2.0
; Copyright (c) 2026 The RIINA Authors.
; Auto-generated from 02_FORMAL/coq/Industries/IndustryHealthcare.v (29 validations)
; Generated by scripts/generate-full-stack.py
;
; Translation Validation for IndustryHealthcare
; Layer 9: Verifies compiler backend preserves formal semantics.
; Each assertion checks source IR ≡ target code for a proven property.

(set-logic QF_LIA)
(set-option :produce-models true)

; IR node representation
(declare-sort IRNode 0)
(declare-sort TargetNode 0)

; phi_sensitivity: source semantics (matches Coq)
(declare-fun source_phi_sensitivity () Bool)
(declare-fun target_phi_sensitivity () Bool)
(assert (= source_phi_sensitivity target_phi_sensitivity))

; minimum_necessary: source semantics (matches Coq)
(declare-fun source_minimum_necessary () Bool)
(declare-fun target_minimum_necessary () Bool)
(assert (= source_minimum_necessary target_minimum_necessary))

; hipaa_all_controls: source semantics (matches Coq)
(declare-fun source_hipaa_all_controls () Bool)
(declare-fun target_hipaa_all_controls () Bool)
(assert (= source_hipaa_all_controls target_hipaa_all_controls))

; hipaa_security_minimum: source semantics (matches Coq)
(declare-fun source_hipaa_security_minimum () Bool)
(declare-fun target_hipaa_security_minimum () Bool)
(assert (= source_hipaa_security_minimum target_hipaa_security_minimum))

; role_level: source semantics (matches Coq)
(declare-fun source_role_level () Bool)
(declare-fun target_role_level () Bool)
(assert (= source_role_level target_role_level))

; access_permitted: source semantics (matches Coq)
(declare-fun source_access_permitted () Bool)
(declare-fun target_access_permitted () Bool)
(assert (= source_access_permitted target_access_permitted))

; consent_valid: source semantics (matches Coq)
(declare-fun source_consent_valid () Bool)
(declare-fun target_consent_valid () Bool)
(assert (= source_consent_valid target_consent_valid))

; retention_years: source semantics (matches Coq)
(declare-fun source_retention_years () Bool)
(declare-fun target_retention_years () Bool)
(assert (= source_retention_years target_retention_years))

; deidentified_sensitivity: source semantics (matches Coq)
(declare-fun source_deidentified_sensitivity () Bool)
(declare-fun target_deidentified_sensitivity () Bool)
(assert (= source_deidentified_sensitivity target_deidentified_sensitivity))

; dose_in_range: source semantics (matches Coq)
(declare-fun source_dose_in_range () Bool)
(declare-fun target_dose_in_range () Bool)
(assert (= source_dose_in_range target_dose_in_range))

; lab_in_normal_range: source semantics (matches Coq)
(declare-fun source_lab_in_normal_range () Bool)
(declare-fun target_lab_in_normal_range () Bool)
(assert (= source_lab_in_normal_range target_lab_in_normal_range))

; hipaa_privacy_rule: translation preserves property (matches Coq: Theorem)
(declare-fun source_hipaa_privacy_rule () Bool)
(declare-fun target_hipaa_privacy_rule () Bool)
(assert (= source_hipaa_privacy_rule target_hipaa_privacy_rule))

; hipaa_security_rule: translation preserves property (matches Coq: Theorem)
(declare-fun source_hipaa_security_rule () Bool)
(declare-fun target_hipaa_security_rule () Bool)
(assert (= source_hipaa_security_rule target_hipaa_security_rule))

; fda_21_cfr_11: translation preserves property (matches Coq: Theorem)
(declare-fun source_fda_21_cfr_11 () Bool)
(declare-fun target_fda_21_cfr_11 () Bool)
(assert (= source_fda_21_cfr_11 target_fda_21_cfr_11))

; hitech_breach_notification: translation preserves property (matches Coq: Theorem)
(declare-fun source_hitech_breach_notification () Bool)
(declare-fun target_hitech_breach_notification () Bool)
(assert (= source_hitech_breach_notification target_hitech_breach_notification))

; hl7_fhir_security: translation preserves property (matches Coq: Theorem)
(declare-fun source_hl7_fhir_security () Bool)
(declare-fun target_hl7_fhir_security () Bool)
(assert (= source_hl7_fhir_security target_hl7_fhir_security))

; phi_encryption_required: translation preserves property (matches Coq: Theorem)
(declare-fun source_phi_encryption_required () Bool)
(declare-fun target_phi_encryption_required () Bool)
(assert (= source_phi_encryption_required target_phi_encryption_required))

; minimum_necessary_access: translation preserves property (matches Coq: Theorem)
(declare-fun source_minimum_necessary_access () Bool)
(declare-fun target_minimum_necessary_access () Bool)
(assert (= source_minimum_necessary_access target_minimum_necessary_access))

; phi_sensitivity_positive: translation preserves property (matches Coq: Lemma)
(declare-fun source_phi_sensitivity_positive () Bool)
(declare-fun target_phi_sensitivity_positive () Bool)
(assert (= source_phi_sensitivity_positive target_phi_sensitivity_positive))

; max_sensitivity_categories: translation preserves property (matches Coq: Lemma)
(declare-fun source_max_sensitivity_categories () Bool)
(declare-fun target_max_sensitivity_categories () Bool)
(assert (= source_max_sensitivity_categories target_max_sensitivity_categories))

; demographics_minimum: translation preserves property (matches Coq: Lemma)
(declare-fun source_demographics_minimum () Bool)
(declare-fun target_demographics_minimum () Bool)
(assert (= source_demographics_minimum target_demographics_minimum))

; genetic_sensitivity_ordering: translation preserves property (matches Coq: Lemma)
(declare-fun source_genetic_sensitivity_ordering () Bool)
(declare-fun target_genetic_sensitivity_ordering () Bool)
(assert (= source_genetic_sensitivity_ordering target_genetic_sensitivity_ordering))

; hipaa_all_controls_access: translation preserves property (matches Coq: Lemma)
(declare-fun source_hipaa_all_controls_access () Bool)
(declare-fun target_hipaa_all_controls_access () Bool)
(assert (= source_hipaa_all_controls_access target_hipaa_all_controls_access))

; hipaa_all_controls_audit: translation preserves property (matches Coq: Lemma)
(declare-fun source_hipaa_all_controls_audit () Bool)
(declare-fun target_hipaa_all_controls_audit () Bool)
(assert (= source_hipaa_all_controls_audit target_hipaa_all_controls_audit))

; hipaa_all_controls_integrity: translation preserves property (matches Coq: Lemma)
(declare-fun source_hipaa_all_controls_integrity () Bool)
(declare-fun target_hipaa_all_controls_integrity () Bool)
(assert (= source_hipaa_all_controls_integrity target_hipaa_all_controls_integrity))

; hipaa_all_controls_transmission: translation preserves property (matches Coq: Lemma)
(declare-fun source_hipaa_all_controls_transmission () Bool)
(declare-fun target_hipaa_all_controls_transmission () Bool)
(assert (= source_hipaa_all_controls_transmission target_hipaa_all_controls_transmission))

; hipaa_all_controls_encryption: translation preserves property (matches Coq: Lemma)
(declare-fun source_hipaa_all_controls_encryption () Bool)
(declare-fun target_hipaa_all_controls_encryption () Bool)
(assert (= source_hipaa_all_controls_encryption target_hipaa_all_controls_encryption))

; hipaa_full_implies_minimum: translation preserves property (matches Coq: Theorem)
(declare-fun source_hipaa_full_implies_minimum () Bool)
(declare-fun target_hipaa_full_implies_minimum () Bool)
(assert (= source_hipaa_full_implies_minimum target_hipaa_full_implies_minimum))

; break_glass_must_be_logged: translation preserves property (matches Coq: Theorem)
(declare-fun source_break_glass_must_be_logged () Bool)
(declare-fun target_break_glass_must_be_logged () Bool)
(assert (= source_break_glass_must_be_logged target_break_glass_must_be_logged))

; high_role_accesses_demographics: translation preserves property (matches Coq: Theorem)
(declare-fun source_high_role_accesses_demographics () Bool)
(declare-fun target_high_role_accesses_demographics () Bool)
(assert (= source_high_role_accesses_demographics target_high_role_accesses_demographics))

; low_role_denied_psychotherapy: translation preserves property (matches Coq: Theorem)
(declare-fun source_low_role_denied_psychotherapy () Bool)
(declare-fun target_low_role_denied_psychotherapy () Bool)
(assert (= source_low_role_denied_psychotherapy target_low_role_denied_psychotherapy))

; role_sufficient_access: translation preserves property (matches Coq: Theorem)
(declare-fun source_role_sufficient_access () Bool)
(declare-fun target_role_sufficient_access () Bool)
(assert (= source_role_sufficient_access target_role_sufficient_access))

; consent_expired_invalid: translation preserves property (matches Coq: Theorem)
(declare-fun source_consent_expired_invalid () Bool)
(declare-fun target_consent_expired_invalid () Bool)
(assert (= source_consent_expired_invalid target_consent_expired_invalid))

; consent_not_granted_invalid: translation preserves property (matches Coq: Theorem)
(declare-fun source_consent_not_granted_invalid () Bool)
(declare-fun target_consent_not_granted_invalid () Bool)
(assert (= source_consent_not_granted_invalid target_consent_not_granted_invalid))

; retention_minimum_6_years: translation preserves property (matches Coq: Theorem)
(declare-fun source_retention_minimum_6_years () Bool)
(declare-fun target_retention_minimum_6_years () Bool)
(assert (= source_retention_minimum_6_years target_retention_minimum_6_years))

; genetic_longest_retention: translation preserves property (matches Coq: Theorem)
(declare-fun source_genetic_longest_retention () Bool)
(declare-fun target_genetic_longest_retention () Bool)
(assert (= source_genetic_longest_retention target_genetic_longest_retention))

; deidentification_removes_sensitivity: translation preserves property (matches Coq: Theorem)
(declare-fun source_deidentification_removes_sensitivity () Bool)
(declare-fun target_deidentification_removes_sensitivity () Bool)
(assert (= source_deidentification_removes_sensitivity target_deidentification_removes_sensitivity))

; non_deidentified_preserves_sensitivity: translation preserves property (matches Coq: Theorem)
(declare-fun source_non_deidentified_preserves_sensitivity () Bool)
(declare-fun target_non_deidentified_preserves_sensitivity () Bool)
(assert (= source_non_deidentified_preserves_sensitivity target_non_deidentified_preserves_sensitivity))

; dose_range_valid: translation preserves property (matches Coq: Theorem)
(declare-fun source_dose_range_valid () Bool)
(declare-fun target_dose_range_valid () Bool)
(assert (= source_dose_range_valid target_dose_range_valid))

; lab_range_bounded: translation preserves property (matches Coq: Theorem)
(declare-fun source_lab_range_bounded () Bool)
(declare-fun target_lab_range_bounded () Bool)
(assert (= source_lab_range_bounded target_lab_range_bounded))

; Verify all translation validations are satisfiable
(check-sat)
(exit)
